32 32
27
3 3 19 25
3 4 19 28
3 5 12 0
3 6 0 0
3 7 6 25
3 8 29 24
3 9 9 23
3 10 26 22
3 11 0 21
3 12 6 13
3 13 6 0
3 14 3 0
3 15 0 6
3 18 3 14
3 22 26 0
3 23 9 0
3 24 29 0
3 25 19 0
3 27 12 5
4 3 22 0
4 4 15 28
4 5 22 27
4 6 22 21
4 7 15 11
4 10 15 18
4 11 15 0
4 18 22 3
